p tw 104 797
1 2
1 3
1 4
1 32
2 3
2 4
2 5
2 33
3 4
3 5
3 6
3 34
4 5
4 6
4 7
4 35
5 6
5 7
5 8
5 36
6 7
6 8
6 9
6 37
7 8
7 9
7 10
7 38
8 9
8 10
8 11
8 39
9 10
9 11
9 12
9 40
10 11
10 12
10 13
10 41
11 12
11 13
11 14
11 42
12 13
12 14
12 15
12 43
13 14
13 15
13 16
13 44
14 15
14 16
14 17
14 45
15 16
15 17
15 18
15 46
16 17
16 18
16 19
16 47
17 18
17 19
17 20
17 48
18 19
18 20
18 21
18 49
19 20
19 21
19 22
19 50
20 21
20 22
20 23
20 51
21 22
21 23
21 24
21 52
22 23
22 24
22 25
22 53
23 24
23 25
23 26
23 54
24 25
24 26
24 27
24 55
25 26
25 27
25 28
25 56
26 27
26 28
26 29
26 57
27 28
27 29
27 30
27 58
28 29
28 30
28 31
28 59
29 30
29 31
29 60
30 31
30 61
31 62
32 35
32 38
32 42
32 45
32 48
32 53
32 56
32 59
32 61
32 85
32 86
32 87
32 88
32 89
32 90
32 91
32 92
32 93
32 94
33 37
33 44
33 50
33 55
33 69
33 70
33 71
33 72
33 73
34 40
34 41
34 47
34 52
34 58
34 63
34 64
34 65
34 66
34 67
34 68
35 38
35 42
35 45
35 48
35 53
35 56
35 59
35 61
35 85
35 86
35 87
35 88
35 89
35 90
35 91
35 92
35 93
35 94
36 39
36 43
36 46
36 49
36 51
36 54
36 57
36 60
36 62
36 95
36 96
36 97
36 98
36 99
36 100
36 101
36 102
36 103
36 104
37 44
37 50
37 55
37 69
37 70
37 71
37 72
37 73
38 42
38 45
38 48
38 53
38 56
38 59
38 61
38 85
38 86
38 87
38 88
38 89
38 90
38 91
38 92
38 93
38 94
39 43
39 46
39 49
39 51
39 54
39 57
39 60
39 62
39 95
39 96
39 97
39 98
39 99
39 100
39 101
39 102
39 103
39 104
40 41
40 47
40 52
40 58
40 63
40 64
40 65
40 66
40 67
40 68
41 47
41 52
41 58
41 63
41 64
41 65
41 66
41 67
41 68
42 45
42 48
42 53
42 56
42 59
42 61
42 85
42 86
42 87
42 88
42 89
42 90
42 91
42 92
42 93
42 94
43 46
43 49
43 51
43 54
43 57
43 60
43 62
43 95
43 96
43 97
43 98
43 99
43 100
43 101
43 102
43 103
43 104
44 50
44 55
44 69
44 70
44 71
44 72
44 73
45 48
45 53
45 56
45 59
45 61
45 85
45 86
45 87
45 88
45 89
45 90
45 91
45 92
45 93
45 94
46 49
46 51
46 54
46 57
46 60
46 62
46 95
46 96
46 97
46 98
46 99
46 100
46 101
46 102
46 103
46 104
47 52
47 58
47 63
47 64
47 65
47 66
47 67
47 68
48 53
48 56
48 59
48 61
48 85
48 86
48 87
48 88
48 89
48 90
48 91
48 92
48 93
48 94
49 51
49 54
49 57
49 60
49 62
49 95
49 96
49 97
49 98
49 99
49 100
49 101
49 102
49 103
49 104
50 55
50 69
50 70
50 71
50 72
50 73
51 54
51 57
51 60
51 62
51 95
51 96
51 97
51 98
51 99
51 100
51 101
51 102
51 103
51 104
52 58
52 63
52 64
52 65
52 66
52 67
52 68
53 56
53 59
53 61
53 85
53 86
53 87
53 88
53 89
53 90
53 91
53 92
53 93
53 94
54 57
54 60
54 62
54 95
54 96
54 97
54 98
54 99
54 100
54 101
54 102
54 103
54 104
55 69
55 70
55 71
55 72
55 73
56 59
56 61
56 85
56 86
56 87
56 88
56 89
56 90
56 91
56 92
56 93
56 94
57 60
57 62
57 95
57 96
57 97
57 98
57 99
57 100
57 101
57 102
57 103
57 104
58 63
58 64
58 65
58 66
58 67
58 68
59 61
59 85
59 86
59 87
59 88
59 89
59 90
59 91
59 92
59 93
59 94
60 62
60 95
60 96
60 97
60 98
60 99
60 100
60 101
60 102
60 103
60 104
61 85
61 86
61 87
61 88
61 89
61 90
61 91
61 92
61 93
61 94
62 95
62 96
62 97
62 98
62 99
62 100
62 101
62 102
62 103
62 104
63 64
63 69
63 70
63 71
63 72
63 73
63 74
63 75
63 76
63 77
63 78
63 79
64 65
64 69
64 70
64 71
64 72
64 73
64 75
64 76
64 77
64 78
64 79
64 80
65 66
65 69
65 70
65 71
65 72
65 73
65 76
65 77
65 78
65 79
65 80
65 81
66 67
66 69
66 70
66 71
66 72
66 73
66 77
66 78
66 79
66 80
66 81
66 82
67 68
67 69
67 70
67 71
67 72
67 73
67 78
67 79
67 80
67 81
67 82
67 83
68 69
68 70
68 71
68 72
68 73
68 79
68 80
68 81
68 82
68 83
68 84
69 70
69 74
69 75
69 76
69 77
69 78
69 79
69 80
70 71
70 75
70 76
70 77
70 78
70 79
70 80
70 81
71 72
71 76
71 77
71 78
71 79
71 80
71 81
71 82
72 73
72 77
72 78
72 79
72 80
72 81
72 82
72 83
73 78
73 79
73 80
73 81
73 82
73 83
73 84
74 75
74 85
74 86
74 87
74 88
74 89
74 90
74 91
74 92
74 93
74 94
74 95
74 96
74 97
74 98
74 99
74 100
74 101
74 102
74 103
74 104
75 76
75 85
75 86
75 87
75 88
75 89
75 90
75 91
75 92
75 93
75 95
75 96
75 97
75 98
75 99
75 100
75 101
75 102
75 103
76 77
76 85
76 86
76 87
76 88
76 89
76 90
76 91
76 92
76 95
76 96
76 97
76 98
76 99
76 100
76 101
76 102
77 78
77 85
77 86
77 87
77 88
77 89
77 90
77 91
77 95
77 96
77 97
77 98
77 99
77 100
77 101
78 79
78 85
78 86
78 87
78 88
78 89
78 90
78 95
78 96
78 97
78 98
78 99
78 100
79 80
79 85
79 86
79 87
79 88
79 89
79 95
79 96
79 97
79 98
79 99
80 81
80 85
80 86
80 87
80 88
80 95
80 96
80 97
80 98
81 82
81 85
81 86
81 87
81 95
81 96
81 97
82 83
82 85
82 86
82 95
82 96
83 84
83 85
83 95
85 86
85 95
85 96
85 97
85 98
85 99
85 100
85 101
85 102
85 103
85 104
86 87
86 95
86 96
86 97
86 98
86 99
86 100
86 101
86 102
86 103
87 88
87 95
87 96
87 97
87 98
87 99
87 100
87 101
87 102
88 89
88 95
88 96
88 97
88 98
88 99
88 100
88 101
89 90
89 95
89 96
89 97
89 98
89 99
89 100
90 91
90 95
90 96
90 97
90 98
90 99
91 92
91 95
91 96
91 97
91 98
92 93
92 95
92 96
92 97
93 94
93 95
93 96
94 95
95 96
96 97
97 98
98 99
99 100
100 101
101 102
102 103
103 104
